solution status: optimal solution found
objective value:                     146965.827645979
d11(0,0)                                            1 	(obj:0)
d11(1,1)                                            1 	(obj:0)
d11(1,2)                                            1 	(obj:0)
d11(3,13)                                           1 	(obj:0)
d11(3,14)                                           1 	(obj:0)
d11(3,16)                                           1 	(obj:0)
d11(3,17)                                           1 	(obj:0)
d11(3,18)                                           1 	(obj:0)
d11(3,19)                                           1 	(obj:0)
d11(3,20)                                           1 	(obj:0)
d11(3,21)                                           1 	(obj:0)
d11(3,22)                                           1 	(obj:0)
d11(3,23)                                           1 	(obj:0)
d11(3,24)                                           1 	(obj:0)
d11(3,25)                                           1 	(obj:0)
d11(3,26)                                           1 	(obj:0)
d11(3,27)                                           1 	(obj:0)
d11(3,28)                                           1 	(obj:0)
d11(3,29)                                           1 	(obj:0)
d11(3,31)                                           1 	(obj:0)
d11(3,32)                                           1 	(obj:0)
d11(3,33)                                           1 	(obj:0)
d11(3,34)                                           1 	(obj:0)
d11(3,35)                                           1 	(obj:0)
d11(3,36)                                           1 	(obj:0)
d11(3,37)                                           1 	(obj:0)
d11(3,38)                                           1 	(obj:0)
d11(3,39)                                           1 	(obj:0)
d11(4,40)                                           1 	(obj:0)
d11(4,41)                                           1 	(obj:0)
d11(4,43)                                           1 	(obj:0)
d11(4,46)                                           1 	(obj:0)
d11(4,47)                                           1 	(obj:0)
d11(4,49)                                           1 	(obj:0)
d11(4,52)                                           1 	(obj:0)
d11(4,55)                                           1 	(obj:0)
d11(4,56)                                           1 	(obj:0)
d11(4,58)                                           1 	(obj:0)
d11(4,59)                                           1 	(obj:0)
d11(4,61)                                           1 	(obj:0)
d11(4,62)                                           1 	(obj:0)
d11(4,64)                                           1 	(obj:0)
d11(4,65)                                           1 	(obj:0)
d11(4,67)                                           1 	(obj:0)
d11(4,68)                                           1 	(obj:0)
d11(4,70)                                           1 	(obj:0)
d11(4,71)                                           1 	(obj:0)
d11(4,73)                                           1 	(obj:0)
d11(4,74)                                           1 	(obj:0)
d11(4,76)                                           1 	(obj:0)
d11(4,79)                                           1 	(obj:0)
d11(4,80)                                           1 	(obj:0)
d11(4,82)                                           1 	(obj:0)
d11(4,83)                                           1 	(obj:0)
d11(4,85)                                           1 	(obj:0)
d11(4,86)                                           1 	(obj:0)
d11(4,88)                                           1 	(obj:0)
d11(4,89)                                           1 	(obj:0)
d11(4,91)                                           1 	(obj:0)
d11(4,94)                                           1 	(obj:0)
d11(4,95)                                           1 	(obj:0)
d11(4,97)                                           1 	(obj:0)
d11(4,98)                                           1 	(obj:0)
d11(4,100)                                          1 	(obj:0)
d11(4,101)                          0.999999999999998 	(obj:0)
d11(4,103)                                          1 	(obj:0)
d11(4,104)                                          1 	(obj:0)
d11(4,106)                                          1 	(obj:0)
d11(4,107)                                          1 	(obj:0)
d11(4,109)                                          1 	(obj:0)
d11(4,110)                                          1 	(obj:0)
d11(4,112)                                          1 	(obj:0)
d11(4,113)                                          1 	(obj:0)
d11(4,115)                                          1 	(obj:0)
d11(4,116)                                          1 	(obj:0)
d11(4,118)                                          1 	(obj:0)
d11(4,119)                                          1 	(obj:0)
d12(2,5)                                            1 	(obj:0)
d12(2,6)                                            1 	(obj:0)
d12(2,8)                                            1 	(obj:0)
d12(2,9)                                            1 	(obj:0)
d12(2,11)                                           1 	(obj:0)
d12(2,12)                                           1 	(obj:0)
d12(4,42)                                           1 	(obj:0)
d12(4,45)                                           1 	(obj:0)
d12(4,48)                                           1 	(obj:0)
d12(4,51)                                           1 	(obj:0)
d12(4,54)                                           1 	(obj:0)
d12(4,57)                                           1 	(obj:0)
d12(4,60)                                           1 	(obj:0)
d12(4,63)                                           1 	(obj:0)
d12(4,66)                                           1 	(obj:0)
d12(4,69)                                           1 	(obj:0)
d12(4,72)                                           1 	(obj:0)
d12(4,75)                                           1 	(obj:0)
d12(4,78)                                           1 	(obj:0)
d12(4,81)                                           1 	(obj:0)
d12(4,84)                                           1 	(obj:0)
d12(4,87)                                           1 	(obj:0)
d12(4,90)                                           1 	(obj:0)
d12(4,93)                                           1 	(obj:0)
d12(4,96)                                           1 	(obj:0)
d12(4,99)                                           1 	(obj:0)
d12(4,102)                                          1 	(obj:0)
d12(4,105)                                          1 	(obj:0)
d12(4,108)                                          1 	(obj:0)
d12(4,111)                                          1 	(obj:0)
d12(4,114)                                          1 	(obj:0)
d12(4,117)                                          1 	(obj:0)
d12(4,120)                                          1 	(obj:0)
d21(3,13)                                           1 	(obj:0)
d21(3,14)                                           1 	(obj:0)
d21(3,15)                                           1 	(obj:0)
d21(3,16)                                           1 	(obj:0)
d21(3,17)                                           1 	(obj:0)
d21(3,19)                                           1 	(obj:0)
d21(3,22)                                           1 	(obj:0)
d21(3,23)                                           1 	(obj:0)
d21(3,25)                                           1 	(obj:0)
d21(3,31)                                           1 	(obj:0)
d21(4,40)                                           1 	(obj:0)
d21(4,41)                                           1 	(obj:0)
d21(4,42)                                           1 	(obj:0)
d21(4,43)                                           1 	(obj:0)
d21(4,44)                                           1 	(obj:0)
d21(4,45)                                           1 	(obj:0)
d21(4,46)                                           1 	(obj:0)
d21(4,47)                                           1 	(obj:0)
d21(4,49)                                           1 	(obj:0)
d21(4,50)                                           1 	(obj:0)
d21(4,51)                                           1 	(obj:0)
d21(4,52)                                           1 	(obj:0)
d21(4,53)                                           1 	(obj:0)
d21(4,54)                                           1 	(obj:0)
d21(4,55)                                           1 	(obj:0)
d21(4,58)                                           1 	(obj:0)
d21(4,59)                                           1 	(obj:0)
d21(4,60)                                           1 	(obj:0)
d21(4,61)                                           1 	(obj:0)
d21(4,62)                                           1 	(obj:0)
d21(4,67)                                           1 	(obj:0)
d21(4,68)                                           1 	(obj:0)
d21(4,69)                                           1 	(obj:0)
d21(4,70)                                           1 	(obj:0)
d21(4,71)                                           1 	(obj:0)
d21(4,73)                                           1 	(obj:0)
d21(4,76)                                           1 	(obj:0)
d21(4,77)                                           1 	(obj:0)
d21(4,78)                                           1 	(obj:0)
d21(4,79)                                           1 	(obj:0)
d21(4,80)                                           1 	(obj:0)
d21(4,85)                                           1 	(obj:0)
d21(4,86)                                           1 	(obj:0)
d21(4,88)                                           1 	(obj:0)
d21(4,94)                                           1 	(obj:0)
d21(4,95)                                           1 	(obj:0)
d21(4,97)                                           1 	(obj:0)
d21(4,103)                                          1 	(obj:0)
y2(4,102)                            960.592983000042 	(obj:0)
y2(4,105)                            960.592983000054 	(obj:0)
y2(4,108)                            960.592983000042 	(obj:0)
y2(4,111)                            960.592983000054 	(obj:0)
y2(4,114)                            960.592983000042 	(obj:0)
y2(4,117)                            960.592983000054 	(obj:0)
y2(4,120)                            960.592983000054 	(obj:0)
STE(1,1)                             5135.62286615004 	(obj:0)
STE(0,0)                                         7875 	(obj:0)
STE(1,2)                             6132.38886948333 	(obj:0)
STE(1,3)                                         7245 	(obj:0)
STE(2,4)                             4505.62286615004 	(obj:0)
STE(2,5)                             5302.34107281671 	(obj:0)
STE(2,6)                             6343.26270666673 	(obj:0)
STE(2,7)                             5502.38886948333 	(obj:0)
STE(2,8)                             6299.10707614999 	(obj:0)
STE(2,9)                             7340.02871000002 	(obj:0)
STE(2,10)                            6614.99999999421 	(obj:0)
STE(2,11)                            7411.71820666667 	(obj:0)
STE(2,12)                             8452.6398405167 	(obj:0)
STE(3,13)                            1661.40465948337 	(obj:0)
STE(3,14)                            2658.17066281666 	(obj:0)
STE(3,15)                            3875.62286615004 	(obj:0)
STE(3,16)                            2458.12286615004 	(obj:0)
STE(3,17)                            3454.88886948333 	(obj:0)
STE(3,18)                            4672.34107281671 	(obj:0)
STE(3,19)                            3499.04450000006 	(obj:0)
STE(3,20)                            4495.81050333335 	(obj:0)
STE(3,21)                            5713.26270666673 	(obj:0)
STE(3,22)                            2658.17066281666 	(obj:0)
STE(3,23)                            3654.93666614995 	(obj:0)
STE(3,24)                            4872.38886948333 	(obj:0)
STE(3,25)                            3454.88886948332 	(obj:0)
STE(3,26)                            4451.65487281661 	(obj:0)
STE(3,27)                            5669.10707614999 	(obj:0)
STE(3,28)                            4495.81050333335 	(obj:0)
STE(3,29)                            5492.57650666665 	(obj:0)
STE(3,30)                            6710.02871000002 	(obj:0)
STE(3,31)                            3770.78179332754 	(obj:0)
STE(3,32)                            4767.54779666083 	(obj:0)
STE(3,33)                             5984.9999999942 	(obj:0)
STE(3,34)                                      4567.5 	(obj:0)
STE(3,35)                            5564.26600333329 	(obj:0)
STE(3,36)                            6781.71820666667 	(obj:0)
STE(3,37)                            5608.42163385003 	(obj:0)
STE(3,38)                            6605.18763718332 	(obj:0)
STE(3,39)                             7822.6398405167 	(obj:0)
STE(4,40)                            34.6386561500769 	(obj:0)
STE(4,41)                            1031.40465948337 	(obj:0)
STE(4,42)                            1943.96799333341 	(obj:0)
STE(4,43)                            1031.40465948337 	(obj:0)
STE(4,44)                            2028.17066281666 	(obj:0)
STE(4,45)                            2940.73399666671 	(obj:0)
STE(4,46)                            2248.85686281675 	(obj:0)
STE(4,47)                            3245.62286615004 	(obj:0)
STE(4,48)                            4158.18620000008 	(obj:0)
STE(4,49)                            831.356862816747 	(obj:0)
STE(4,50)                            1828.12286615004 	(obj:0)
STE(4,51)                            2740.68620000008 	(obj:0)
STE(4,52)                            1828.12286615004 	(obj:0)
STE(4,53)                            2824.88886948333 	(obj:0)
STE(4,54)                            3737.45220333337 	(obj:0)
STE(4,55)                            3045.57506948342 	(obj:0)
STE(4,56)                            4042.34107281671 	(obj:0)
STE(4,57)                            4954.90440666675 	(obj:0)
STE(4,58)                            1872.27849666677 	(obj:0)
STE(4,59)                            2869.04450000006 	(obj:0)
STE(4,60)                             3781.6078338501 	(obj:0)
STE(4,61)                            2869.04450000006 	(obj:0)
STE(4,62)                            3865.81050333335 	(obj:0)
STE(4,63)                             4778.3738371834 	(obj:0)
STE(4,64)                            4086.49670333344 	(obj:0)
STE(4,65)                            5083.26270666673 	(obj:0)
STE(4,66)                            5995.82604051677 	(obj:0)
STE(4,67)                            1031.40465948337 	(obj:0)
STE(4,68)                            2028.17066281666 	(obj:0)
STE(4,69)                             2940.7339966667 	(obj:0)
STE(4,70)                            2028.17066281666 	(obj:0)
STE(4,71)                            3024.93666614995 	(obj:0)
STE(4,72)                                      3937.5 	(obj:0)
STE(4,73)                            3245.62286615004 	(obj:0)
STE(4,74)                            4242.38886948333 	(obj:0)
STE(4,75)                            5154.95220333337 	(obj:0)
STE(4,76)                            1828.12286615003 	(obj:0)
STE(4,77)                            2824.88886948332 	(obj:0)
STE(4,78)                            3737.45220333336 	(obj:0)
STE(4,79)                            2824.88886948332 	(obj:0)
STE(4,80)                            3821.65487281661 	(obj:0)
STE(4,81)                            4734.21820666665 	(obj:0)
STE(4,82)                            4042.34107281669 	(obj:0)
STE(4,83)                            5039.10707614999 	(obj:0)
STE(4,84)                            5951.67041000004 	(obj:0)
STE(4,85)                            2869.04450000006 	(obj:0)
STE(4,86)                            3865.81050333335 	(obj:0)
STE(4,87)                             4778.3738371834 	(obj:0)
STE(4,88)                            3865.81050333335 	(obj:0)
STE(4,89)                            4862.57650666665 	(obj:0)
STE(4,90)                            5775.13984051669 	(obj:0)
STE(4,91)                            5083.26270666673 	(obj:0)
STE(4,92)                            6080.02871000002 	(obj:0)
STE(4,93)                            6992.59204385006 	(obj:0)
STE(4,94)                            2144.01578999425 	(obj:0)
STE(4,95)                            3140.78179332754 	(obj:0)
STE(4,96)                            4053.34512717758 	(obj:0)
STE(4,97)                            3140.78179332754 	(obj:0)
STE(4,98)                            4137.54779666083 	(obj:0)
STE(4,99)                            5050.11113051087 	(obj:0)
STE(4,100)                           4358.23399666091 	(obj:0)
STE(4,101)                           5354.99999999271 	(obj:0)
STE(4,102)                           6267.56333384424 	(obj:0)
STE(4,103)                           2940.73399666671 	(obj:0)
STE(4,104)                                     3937.5 	(obj:0)
STE(4,105)                           4850.06333385005 	(obj:0)
STE(4,106)                                     3937.5 	(obj:0)
STE(4,107)                           4934.26600333329 	(obj:0)
STE(4,108)                           5846.82933718333 	(obj:0)
STE(4,109)                           5154.95220333338 	(obj:0)
STE(4,110)                           6151.71820666667 	(obj:0)
STE(4,111)                           7064.28154051672 	(obj:0)
STE(4,112)                           3981.65563051674 	(obj:0)
STE(4,113)                           4978.42163385003 	(obj:0)
STE(4,114)                           5890.98496770007 	(obj:0)
STE(4,115)                           4978.42163385003 	(obj:0)
STE(4,116)                           5975.18763718332 	(obj:0)
STE(4,117)                           6887.75097103337 	(obj:0)
STE(4,118)                           6195.87383718341 	(obj:0)
STE(4,119)                            7192.6398405167 	(obj:0)
STE(4,120)                           8105.20317436675 	(obj:0)
y1(4,100)                            897.089402999962 	(obj:0)
y1(4,101)                        1.34110450744629e-009 	(obj:0)
y1(4,103)                            897.089402999962 	(obj:0)
y1(4,106)                            897.089402999962 	(obj:0)
y1(4,109)                            897.089402999962 	(obj:0)
y1(4,112)                            897.089402999962 	(obj:0)
y1(4,115)                            897.089402999962 	(obj:0)
y1(4,118)                            897.089402999962 	(obj:0)
AVE(3)                                3399.3204933139 	(obj:0)
AVE(4)                               3353.21046544222 	(obj:0)
y2(4,99)                             960.592983000042 	(obj:0)
WG(2)                                 2423.1786824905 	(obj:10)
WG(3)                                3399.32049331398 	(obj:10)
WG(4)                                3353.21046544229 	(obj:10)
BG(1)                                 4399.6357321071 	(obj:10)
BG(3)                                1096.59785668601 	(obj:10)
BG(4)                                24.6395345576516 	(obj:10)
WB(1)                                3134.60043707458 	(obj:0)
AVE(1)                               3134.60043707458 	(obj:0)
WB(2)                                903.273026175933 	(obj:0)
AVE(2)                               3326.45170866643 	(obj:0)
y1(1,1)                              1898.43942046497 	(obj:0)
y1(1,2)                              1001.35001746501 	(obj:0)
y1(2,10)                         5.21540641784668e-009 	(obj:0)
y1(3,13)                                  1992.796386 	(obj:0)
y1(3,14)                             1095.70698300004 	(obj:0)
y1(3,16)                                  1992.796386 	(obj:0)
y1(3,17)                             1095.70698300004 	(obj:0)
y1(3,19)                                  1992.796386 	(obj:0)
y1(3,20)                             1095.70698300004 	(obj:0)
y1(3,22)                                  1992.796386 	(obj:0)
y1(3,23)                             1095.70698300004 	(obj:0)
y1(3,25)                                  1992.796386 	(obj:0)
y1(3,26)                             1095.70698300004 	(obj:0)
y1(3,28)                                  1992.796386 	(obj:0)
y1(3,29)                             1095.70698300004 	(obj:0)
y1(3,31)                                  1992.796386 	(obj:0)
y1(3,32)                             1095.70698300004 	(obj:0)
y1(3,34)                                  1992.796386 	(obj:0)
y1(3,35)                             1095.70698300004 	(obj:0)
y1(3,37)                                  1992.796386 	(obj:0)
y1(3,38)                             1095.70698300004 	(obj:0)
y1(4,40)                             897.089402999962 	(obj:0)
y1(4,43)                             897.089402999962 	(obj:0)
y1(4,46)                             897.089402999962 	(obj:0)
y1(4,49)                             897.089402999962 	(obj:0)
y1(4,52)                             897.089402999962 	(obj:0)
y1(4,55)                             897.089402999962 	(obj:0)
y1(4,58)                             897.089402999962 	(obj:0)
y1(4,61)                             897.089402999962 	(obj:0)
y1(4,64)                             897.089402999962 	(obj:0)
y1(4,67)                             897.089402999962 	(obj:0)
y1(4,70)                             897.089402999962 	(obj:0)
y1(4,73)                             897.089402999962 	(obj:0)
y1(4,76)                             897.089402999962 	(obj:0)
y1(4,79)                             897.089402999962 	(obj:0)
y1(4,82)                             897.089402999962 	(obj:0)
y1(4,85)                             897.089402999962 	(obj:0)
y1(4,88)                             897.089402999962 	(obj:0)
y1(4,91)                             897.089402999962 	(obj:0)
y1(4,94)                             897.089402999962 	(obj:0)
y1(4,97)                             897.089402999962 	(obj:0)
y2(2,5)                              838.650743859651 	(obj:0)
y2(2,6)                              1934.35772685968 	(obj:0)
y2(2,8)                               838.65074385964 	(obj:0)
y2(2,9)                              1934.35772685968 	(obj:0)
y2(2,11)                             838.650743859651 	(obj:0)
y2(2,12)                             1934.35772685968 	(obj:0)
y2(4,42)                             960.592983000042 	(obj:0)
y2(4,45)                             960.592983000054 	(obj:0)
y2(4,48)                             960.592983000042 	(obj:0)
y2(4,51)                             960.592983000042 	(obj:0)
y2(4,54)                             960.592983000042 	(obj:0)
y2(4,57)                             960.592983000042 	(obj:0)
y2(4,60)                             960.592983000042 	(obj:0)
y2(4,63)                             960.592983000042 	(obj:0)
y2(4,66)                             960.592983000042 	(obj:0)
y2(4,69)                             960.592983000042 	(obj:0)
y2(4,72)                             960.592983000054 	(obj:0)
y2(4,75)                             960.592983000042 	(obj:0)
y2(4,78)                             960.592983000042 	(obj:0)
y2(4,81)                             960.592983000042 	(obj:0)
y2(4,84)                             960.592983000054 	(obj:0)
y2(4,87)                             960.592983000042 	(obj:0)
y2(4,90)                             960.592983000042 	(obj:0)
y2(4,93)                             960.592983000042 	(obj:0)
y2(4,96)                             960.592983000042 	(obj:0)
